sifdecoder -A pc64.lnx.gfo -st   A5ESDNDL

 Problem name: A5ESDNDL

 Double precision version will be formed

 The objective function uses 2 linear groups
 
 There are 15002 linear equality constraints
 
 There are 10002 free variables
 There are 10000 variables bounded only from below 
 There are 25004 fixed variables
 
 
 File successfully decoded
 CUTEST: tools (double precision version) compiled successfully
 CUTEst: ipopt (double precision version) compiled successfully

******************************************************************************
This program contains Ipopt, a library for large-scale nonlinear optimization.
 Ipopt is released as open source code under the Eclipse Public License (EPL).
         For more information visit http://projects.coin-or.org/Ipopt
******************************************************************************

This is Ipopt version trunk, running with linear solver ma57.

Number of nonzeros in equality constraint Jacobian...:    54992
Number of nonzeros in inequality constraint Jacobian.:        0
Number of nonzeros in Lagrangian Hessian.............:    25002

Total number of variables............................:    20002
                     variables with only lower bounds:    10000
                variables with lower and upper bounds:        0
                     variables with only upper bounds:        0
Total number of equality constraints.................:    15002
Total number of inequality constraints...............:        0
        inequality constraints with only lower bounds:        0
   inequality constraints with lower and upper bounds:        0
        inequality constraints with only upper bounds:        0

iter    objective    inf_pr   inf_du lg(mu)  ||d||  lg(rg) alpha_du alpha_pr  ls
   0  4.9999900e-01 9.92e+01 6.88e-01  -1.0 0.00e+00    -  0.00e+00 0.00e+00   0
   1  4.2597737e-01 9.90e+01 7.08e-01  -1.0 1.70e+02    -  1.98e-03 2.02e-03h  1
   2  5.1634786e-01 9.79e+01 1.94e+00  -1.0 1.02e+01    -  2.35e-03 1.10e-02f  1
   3  5.8596860e+00 9.09e+01 3.58e+00  -1.0 9.92e+00    -  1.39e-02 7.24e-02f  1
   4  5.7518712e+02 2.78e-13 7.05e+00  -1.0 9.20e+00    -  1.11e-01 1.00e+00f  1
   5  2.7294085e+02 1.70e-13 1.49e+00  -1.0 6.17e-01    -  1.00e+00 4.37e-01f  1
   6  5.8537396e+02 2.86e-14 1.00e-06  -1.0 8.13e+00    -  1.00e+00 1.00e+00f  1
   7  9.5616975e+01 2.63e-13 2.83e-08  -2.5 7.51e+00    -  1.00e+00 1.00e+00f  1
   8  3.2372655e+01 2.50e-13 2.83e-08  -2.5 3.29e+00    -  1.00e+00 1.00e+00f  1
   9  6.8671800e+00 1.25e-13 1.50e-09  -3.8 1.94e+00    -  1.00e+00 1.00e+00f  1
iter    objective    inf_pr   inf_du lg(mu)  ||d||  lg(rg) alpha_du alpha_pr  ls
  10  2.1930492e+00 2.00e-13 1.50e-09  -3.8 9.34e-01    -  1.00e+00 1.00e+00f  1
  11  4.5963972e-01 2.73e-13 1.85e-11  -5.7 5.23e-01    -  1.00e+00 1.00e+00f  1
  12  1.2059935e-01 4.70e-13 1.85e-11  -5.7 2.60e-01    -  1.00e+00 1.00e+00f  1
  13  3.5873812e-02 3.36e-13 1.84e-11  -5.7 1.27e-01    -  1.00e+00 1.00e+00f  1
  14  7.7030866e-03 5.46e-14 2.66e-14  -8.6 6.88e-02    -  1.00e+00 1.00e+00f  1
  15  1.8298849e-03 9.99e-14 2.66e-14  -8.6 3.44e-02    -  1.00e+00 1.00e+00f  1
  16  3.6159377e-04 3.73e-14 2.66e-14  -8.6 1.72e-02    -  1.00e+00 1.00e+00f  1
  17 -5.4618859e-06 8.66e-14 2.66e-14  -8.6 8.53e-03    -  1.00e+00 1.00e+00f  1
  18 -9.7168603e-05 1.31e-13 2.66e-14  -8.6 4.16e-03    -  1.00e+00 1.00e+00f  1
  19 -1.2615295e-04 2.53e-13 1.07e-14  -9.0 2.15e-03    -  1.00e+00 1.00e+00f  1

Number of Iterations....: 19

                                   (scaled)                 (unscaled)
Objective...............:  -1.2615295267700879e-04   -1.2615295267700879e-04
Dual infeasibility......:   1.0658141036401503e-14    1.0658141036401503e-14
Constraint violation....:   2.5268676040468563e-13    2.5268676040468563e-13
Complementarity.........:   4.0024199725483834e-09    4.0024199725483834e-09
Overall NLP error.......:   4.0024199725483834e-09    4.0024199725483834e-09


Number of objective function evaluations             = 20
Number of objective gradient evaluations             = 20
Number of equality constraint evaluations            = 20
Number of inequality constraint evaluations          = 0
Number of equality constraint Jacobian evaluations   = 20
Number of inequality constraint Jacobian evaluations = 0
Number of Lagrangian Hessian evaluations             = 19
Total CPU secs in IPOPT (w/o function evaluations)   =      1.437
Total CPU secs in NLP function evaluations           =      0.788

EXIT: Optimal Solution Found.

************************ CUTEst statistics ************************


 Package used            :  IPOPT
 Problem                 :  A5ESDNDL  
 # variables             =           45006
 # constraints           =           15002
 # objective functions   =        0.4100000E+02
 # objective gradients   =        0.2100000E+02
 # objective Hessians    =        0.2000000E+02
 # Hessian-vector prdct  =        0.0000000E+00
 # constraints functions =        0.4200000E+02
 # constraints gradients =        0.2200000E+02
 # constraints Hessians  =        0.2000000E+02
 Exit code               =               0
 Final f                 =       -1.2615295267700879D-04
 Bounds feasibility      =        9.9090716320933315D-09
 Set up time             =            0.80 seconds
 Solve time              =            4.61 seconds


******************************************************************

